5 5
4 77 3 58 0 93 1 9 2 26
0 28 2 77 3 36 4 9 1 47
1 78 4 51 2 76 3 57 0 32
4 67 2 57 0 54 3 16 1 62
1 84 2 96 4 56 3 23 0 17
-1
0 3 5
0 1 3 4 5
0 1 3 4 5
0 1 5
0 1 2 4 5
-2
240 333
33 189 238 303
107 215 391 413
100 268
107 241 403 363

423 6
5 2 17 24 14
20 10 3 9 19
6 21 16 12 4
1 7 23 18 13
0 15 8 11 22
